\ This file has been generated by DOcplex
\ ENCODING=ISO-8859-1
\Problem name: dca__toy_baseline

Maximize
 obj: 27.920000000000 xi__K0001 + 159 xi__K0002 + 144.180000000000 xi__K0003
      + 118.080000000000 xi__K0004 + 237.520000000000 xi__K0005
      + 109.750000000000 xi__K0006 + 140.910000000000 xi__K0007
      + 171.680000000000 xi__K0008 + 126.150000000000 xi__K0009
      + 67.840000000000 xi__K0010 + 67.420000000000 xi__K0011
      + 168.760000000000 xi__K0012 + 186.350000000000 xi__K0013
      + 157.400000000000 xi__K0014 + 33.630000000000 xi__K0015
      + 45.400000000000 xi__K0016 + 352.440000000000 xi__K0017
      + 388.220000000000 xi__K0018 + 161.800000000000 xi__K0019
      + 35.510000000000 xi__K0020
Subject To
 flow_balance__K0001__B__1: v__K0001__1__transport__5__S6 - xi__K0001 = 0
 flow_balance__K0001__A__2: v__K0001__0__delivery__K0001__A_2__sink
                            - v__K0001__1__transport__5__S6 = 0
 sink_balance__K0001: v__K0001__0__delivery__K0001__A_2__sink - xi__K0001 = 0
 flow_balance__K0002__B__1: v__K0002__3__holding__B__1__2
                            + v__K0002__7__transport__1__S2
                            + v__K0002__10__transport__5__S6 - 5 xi__K0002 = 0
 flow_balance__K0002__A__2: v__K0002__8__transport__2__S3
                            - v__K0002__10__transport__5__S6 = 0
 flow_balance__K0002__B__2: - v__K0002__3__holding__B__1__2
                            + v__K0002__4__holding__B__2__3 = 0
 flow_balance__K0002__C__2: v__K0002__0__delivery__K0002__C_2__sink
                            + v__K0002__5__holding__C__2__3
                            - v__K0002__7__transport__1__S2 = 0
 flow_balance__K0002__B__3: - v__K0002__4__holding__B__2__3
                            - v__K0002__8__transport__2__S3
                            + v__K0002__9__transport__3__S4 = 0
 flow_balance__K0002__C__3: v__K0002__1__delivery__K0002__C_3__sink
                            - v__K0002__5__holding__C__2__3
                            + v__K0002__6__holding__C__3__4 = 0
 flow_balance__K0002__C__4: v__K0002__2__delivery__K0002__C_4__sink
                            - v__K0002__6__holding__C__3__4
                            - v__K0002__9__transport__3__S4 = 0
 sink_balance__K0002: v__K0002__0__delivery__K0002__C_2__sink
                      + v__K0002__1__delivery__K0002__C_3__sink
                      + v__K0002__2__delivery__K0002__C_4__sink - 5 xi__K0002
                       = 0
 flow_balance__K0003__C__0: v__K0003__3__transport__4__S5 - 6 xi__K0003 = 0
 flow_balance__K0003__B__1: - v__K0003__3__transport__4__S5
                            + v__K0003__4__transport__5__S6 = 0
 flow_balance__K0003__A__2: v__K0003__0__delivery__K0003__A_2__sink
                            + v__K0003__2__holding__A__2__3
                            - v__K0003__4__transport__5__S6 = 0
 flow_balance__K0003__A__3: v__K0003__1__delivery__K0003__A_3__sink
                            - v__K0003__2__holding__A__2__3 = 0
 sink_balance__K0003: v__K0003__0__delivery__K0003__A_2__sink
                      + v__K0003__1__delivery__K0003__A_3__sink - 6 xi__K0003
                       = 0
 flow_balance__K0004__A__0: v__K0004__3__transport__0__S1 - 3 xi__K0004 = 0
 flow_balance__K0004__B__1: v__K0004__0__delivery__K0004__B_1__sink
                            + v__K0004__2__holding__B__1__2
                            - v__K0004__3__transport__0__S1 = 0
 flow_balance__K0004__B__2: v__K0004__1__delivery__K0004__B_2__sink
                            - v__K0004__2__holding__B__1__2 = 0
 sink_balance__K0004: v__K0004__0__delivery__K0004__B_1__sink
                      + v__K0004__1__delivery__K0004__B_2__sink - 3 xi__K0004
                       = 0
 flow_balance__K0005__C__0: v__K0005__1__transport__4__S5 - 8 xi__K0005 = 0
 flow_balance__K0005__B__1: - v__K0005__1__transport__4__S5
                            + v__K0005__2__transport__5__S6 = 0
 flow_balance__K0005__A__2: v__K0005__0__delivery__K0005__A_2__sink
                            - v__K0005__2__transport__5__S6 = 0
 sink_balance__K0005: v__K0005__0__delivery__K0005__A_2__sink - 8 xi__K0005 = 0
 flow_balance__K0006__A__0: v__K0006__3__transport__0__S1 - 5 xi__K0006 = 0
 flow_balance__K0006__B__1: - v__K0006__3__transport__0__S1
                            + v__K0006__4__transport__1__S2 = 0
 flow_balance__K0006__C__2: v__K0006__0__delivery__K0006__C_2__sink
                            + v__K0006__2__holding__C__2__3
                            - v__K0006__4__transport__1__S2 = 0
 flow_balance__K0006__C__3: v__K0006__1__delivery__K0006__C_3__sink
                            - v__K0006__2__holding__C__2__3 = 0
 sink_balance__K0006: v__K0006__0__delivery__K0006__C_2__sink
                      + v__K0006__1__delivery__K0006__C_3__sink - 5 xi__K0006
                       = 0
 flow_balance__K0007__B__1: v__K0007__3__holding__B__1__2
                            + v__K0007__7__transport__1__S2
                            + v__K0007__10__transport__5__S6 - 3 xi__K0007 = 0
 flow_balance__K0007__A__2: v__K0007__8__transport__2__S3
                            - v__K0007__10__transport__5__S6 = 0
 flow_balance__K0007__B__2: - v__K0007__3__holding__B__1__2
                            + v__K0007__4__holding__B__2__3 = 0
 flow_balance__K0007__C__2: v__K0007__0__delivery__K0007__C_2__sink
                            + v__K0007__5__holding__C__2__3
                            - v__K0007__7__transport__1__S2 = 0
 flow_balance__K0007__B__3: - v__K0007__4__holding__B__2__3
                            - v__K0007__8__transport__2__S3
                            + v__K0007__9__transport__3__S4 = 0
 flow_balance__K0007__C__3: v__K0007__1__delivery__K0007__C_3__sink
                            - v__K0007__5__holding__C__2__3
                            + v__K0007__6__holding__C__3__4 = 0
 flow_balance__K0007__C__4: v__K0007__2__delivery__K0007__C_4__sink
                            - v__K0007__6__holding__C__3__4
                            - v__K0007__9__transport__3__S4 = 0
 sink_balance__K0007: v__K0007__0__delivery__K0007__C_2__sink
                      + v__K0007__1__delivery__K0007__C_3__sink
                      + v__K0007__2__delivery__K0007__C_4__sink - 3 xi__K0007
                       = 0
 flow_balance__K0008__B__2: v__K0008__1__holding__B__2__3 - 8 xi__K0008 = 0
 flow_balance__K0008__B__3: - v__K0008__1__holding__B__2__3
                            + v__K0008__2__transport__3__S4 = 0
 flow_balance__K0008__C__4: v__K0008__0__delivery__K0008__C_4__sink
                            - v__K0008__2__transport__3__S4 = 0
 sink_balance__K0008: v__K0008__0__delivery__K0008__C_4__sink - 8 xi__K0008 = 0
 flow_balance__K0009__A__1: v__K0009__1__holding__A__1__2 - 3 xi__K0009 = 0
 flow_balance__K0009__A__2: - v__K0009__1__holding__A__1__2
                            + v__K0009__2__transport__2__S3 = 0
 flow_balance__K0009__B__3: - v__K0009__2__transport__2__S3
                            + v__K0009__3__transport__3__S4 = 0
 flow_balance__K0009__C__4: v__K0009__0__delivery__K0009__C_4__sink
                            - v__K0009__3__transport__3__S4 = 0
 sink_balance__K0009: v__K0009__0__delivery__K0009__C_4__sink - 3 xi__K0009 = 0
 flow_balance__K0010__B__1: v__K0010__1__transport__1__S2 - 2 xi__K0010 = 0
 flow_balance__K0010__C__2: v__K0010__0__delivery__K0010__C_2__sink
                            - v__K0010__1__transport__1__S2 = 0
 sink_balance__K0010: v__K0010__0__delivery__K0010__C_2__sink - 2 xi__K0010 = 0
 flow_balance__K0011__A__0: v__K0011__3__transport__0__S1 - 2 xi__K0011 = 0
 flow_balance__K0011__B__1: - v__K0011__3__transport__0__S1
                            + v__K0011__4__transport__1__S2 = 0
 flow_balance__K0011__C__2: v__K0011__0__delivery__K0011__C_2__sink
                            + v__K0011__2__holding__C__2__3
                            - v__K0011__4__transport__1__S2 = 0
 flow_balance__K0011__C__3: v__K0011__1__delivery__K0011__C_3__sink
                            - v__K0011__2__holding__C__2__3 = 0
 sink_balance__K0011: v__K0011__0__delivery__K0011__C_2__sink
                      + v__K0011__1__delivery__K0011__C_3__sink - 2 xi__K0011
                       = 0
 flow_balance__K0012__C__0: v__K0012__3__transport__4__S5 - 4 xi__K0012 = 0
 flow_balance__K0012__B__1: v__K0012__0__delivery__K0012__B_1__sink
                            + v__K0012__2__holding__B__1__2
                            - v__K0012__3__transport__4__S5 = 0
 flow_balance__K0012__B__2: v__K0012__1__delivery__K0012__B_2__sink
                            - v__K0012__2__holding__B__1__2 = 0
 sink_balance__K0012: v__K0012__0__delivery__K0012__B_1__sink
                      + v__K0012__1__delivery__K0012__B_2__sink - 4 xi__K0012
                       = 0
 flow_balance__K0013__B__2: v__K0013__2__holding__B__2__3 - 5 xi__K0013 = 0
 flow_balance__K0013__B__3: - v__K0013__2__holding__B__2__3
                            + v__K0013__4__transport__3__S4 = 0
 flow_balance__K0013__C__4: v__K0013__0__delivery__K0013__C_4__sink
                            + v__K0013__3__holding__C__4__5
                            - v__K0013__4__transport__3__S4 = 0
 flow_balance__K0013__C__5: v__K0013__1__delivery__K0013__C_5__sink
                            - v__K0013__3__holding__C__4__5 = 0
 sink_balance__K0013: v__K0013__0__delivery__K0013__C_4__sink
                      + v__K0013__1__delivery__K0013__C_5__sink - 5 xi__K0013
                       = 0
 flow_balance__K0014__A__2: v__K0014__3__transport__2__S3 - 4 xi__K0014 = 0
 flow_balance__K0014__B__3: - v__K0014__3__transport__2__S3
                            + v__K0014__4__transport__3__S4 = 0
 flow_balance__K0014__C__4: v__K0014__0__delivery__K0014__C_4__sink
                            + v__K0014__2__holding__C__4__5
                            - v__K0014__4__transport__3__S4 = 0
 flow_balance__K0014__C__5: v__K0014__1__delivery__K0014__C_5__sink
                            - v__K0014__2__holding__C__4__5 = 0
 sink_balance__K0014: v__K0014__0__delivery__K0014__C_4__sink
                      + v__K0014__1__delivery__K0014__C_5__sink - 4 xi__K0014
                       = 0
 flow_balance__K0015__B__1: v__K0015__3__transport__5__S6 - xi__K0015 = 0
 flow_balance__K0015__A__2: v__K0015__0__delivery__K0015__A_2__sink
                            + v__K0015__2__holding__A__2__3
                            - v__K0015__3__transport__5__S6 = 0
 flow_balance__K0015__A__3: v__K0015__1__delivery__K0015__A_3__sink
                            - v__K0015__2__holding__A__2__3 = 0
 sink_balance__K0015: v__K0015__0__delivery__K0015__A_2__sink
                      + v__K0015__1__delivery__K0015__A_3__sink - xi__K0015 = 0
 flow_balance__K0016__A__0: v__K0016__3__holding__A__0__1
                            + v__K0016__7__transport__0__S1 - 2 xi__K0016 = 0
 flow_balance__K0016__A__1: - v__K0016__3__holding__A__0__1
                            + v__K0016__4__holding__A__1__2 = 0
 flow_balance__K0016__B__1: v__K0016__0__delivery__K0016__B_1__sink
                            + v__K0016__5__holding__B__1__2
                            - v__K0016__7__transport__0__S1
                            + v__K0016__9__transport__5__S6 = 0
 flow_balance__K0016__A__2: - v__K0016__4__holding__A__1__2
                            + v__K0016__8__transport__2__S3
                            - v__K0016__9__transport__5__S6 = 0
 flow_balance__K0016__B__2: v__K0016__1__delivery__K0016__B_2__sink
                            - v__K0016__5__holding__B__1__2
                            + v__K0016__6__holding__B__2__3 = 0
 flow_balance__K0016__B__3: v__K0016__2__delivery__K0016__B_3__sink
                            - v__K0016__6__holding__B__2__3
                            - v__K0016__8__transport__2__S3 = 0
 sink_balance__K0016: v__K0016__0__delivery__K0016__B_1__sink
                      + v__K0016__1__delivery__K0016__B_2__sink
                      + v__K0016__2__delivery__K0016__B_3__sink - 2 xi__K0016
                       = 0
 flow_balance__K0017__B__1: v__K0017__1__transport__1__S2 - 6 xi__K0017 = 0
 flow_balance__K0017__C__2: v__K0017__0__delivery__K0017__C_2__sink
                            - v__K0017__1__transport__1__S2 = 0
 sink_balance__K0017: v__K0017__0__delivery__K0017__C_2__sink - 6 xi__K0017 = 0
 flow_balance__K0018__B__2: v__K0018__2__holding__B__2__3 - 7 xi__K0018 = 0
 flow_balance__K0018__B__3: - v__K0018__2__holding__B__2__3
                            + v__K0018__4__transport__3__S4 = 0
 flow_balance__K0018__C__4: v__K0018__0__delivery__K0018__C_4__sink
                            + v__K0018__3__holding__C__4__5
                            - v__K0018__4__transport__3__S4 = 0
 flow_balance__K0018__C__5: v__K0018__1__delivery__K0018__C_5__sink
                            - v__K0018__3__holding__C__4__5 = 0
 sink_balance__K0018: v__K0018__0__delivery__K0018__C_4__sink
                      + v__K0018__1__delivery__K0018__C_5__sink - 7 xi__K0018
                       = 0
 flow_balance__K0019__B__1: v__K0019__3__transport__5__S6 - 5 xi__K0019 = 0
 flow_balance__K0019__A__2: v__K0019__0__delivery__K0019__A_2__sink
                            + v__K0019__2__holding__A__2__3
                            - v__K0019__3__transport__5__S6 = 0
 flow_balance__K0019__A__3: v__K0019__1__delivery__K0019__A_3__sink
                            - v__K0019__2__holding__A__2__3 = 0
 sink_balance__K0019: v__K0019__0__delivery__K0019__A_2__sink
                      + v__K0019__1__delivery__K0019__A_3__sink - 5 xi__K0019
                       = 0
 flow_balance__K0020__B__2: v__K0020__2__holding__B__2__3 - xi__K0020 = 0
 flow_balance__K0020__B__3: - v__K0020__2__holding__B__2__3
                            + v__K0020__4__transport__3__S4 = 0
 flow_balance__K0020__C__4: v__K0020__0__delivery__K0020__C_4__sink
                            + v__K0020__3__holding__C__4__5
                            - v__K0020__4__transport__3__S4 = 0
 flow_balance__K0020__C__5: v__K0020__1__delivery__K0020__C_5__sink
                            - v__K0020__3__holding__C__4__5 = 0
 sink_balance__K0020: v__K0020__0__delivery__K0020__C_4__sink
                      + v__K0020__1__delivery__K0020__C_5__sink - xi__K0020 = 0
 capacity__transport__0__S1: v__K0004__3__transport__0__S1
                             + v__K0006__3__transport__0__S1
                             + v__K0011__3__transport__0__S1
                             + v__K0016__7__transport__0__S1 <= 10
 capacity__transport__1__S2: v__K0002__7__transport__1__S2
                             + v__K0006__4__transport__1__S2
                             + v__K0007__7__transport__1__S2
                             + v__K0010__1__transport__1__S2
                             + v__K0011__4__transport__1__S2
                             + v__K0017__1__transport__1__S2 <= 10
 capacity__transport__2__S3: v__K0002__8__transport__2__S3
                             + v__K0007__8__transport__2__S3
                             + v__K0009__2__transport__2__S3
                             + v__K0014__3__transport__2__S3
                             + v__K0016__8__transport__2__S3 <= 10
 capacity__transport__3__S4: v__K0002__9__transport__3__S4
                             + v__K0007__9__transport__3__S4
                             + v__K0008__2__transport__3__S4
                             + v__K0009__3__transport__3__S4
                             + v__K0013__4__transport__3__S4
                             + v__K0014__4__transport__3__S4
                             + v__K0018__4__transport__3__S4
                             + v__K0020__4__transport__3__S4 <= 10
 capacity__transport__4__S5: v__K0003__3__transport__4__S5
                             + v__K0005__1__transport__4__S5
                             + v__K0012__3__transport__4__S5 <= 10
 capacity__transport__5__S6: v__K0001__1__transport__5__S6
                             + v__K0002__10__transport__5__S6
                             + v__K0003__4__transport__5__S6
                             + v__K0005__2__transport__5__S6
                             + v__K0007__10__transport__5__S6
                             + v__K0015__3__transport__5__S6
                             + v__K0016__9__transport__5__S6
                             + v__K0019__3__transport__5__S6 <= 10

Bounds
       xi__K0001 <= 1
       xi__K0002 <= 1
       xi__K0003 <= 1
 0 <= xi__K0004 <= 1
       xi__K0005 <= 1
       xi__K0006 <= 1
       xi__K0007 = 1
 0 <= xi__K0008 <= 1
       xi__K0009 = 1
 0 <= xi__K0010 <= 1
       xi__K0011 = 1
       xi__K0012 <= 1
       xi__K0013 = 1
 0 <= xi__K0014 <= 1
 0 <= xi__K0015 <= 1
       xi__K0016 <= 1
       xi__K0017 = 1
 0 <= xi__K0018 <= 1
 0 <= xi__K0019 <= 1
       xi__K0020 = 1

Binaries
 xi__K0004 xi__K0008 xi__K0010 xi__K0014 xi__K0015 xi__K0018 xi__K0019
End
